data/lp_files/pEFS/58_5.lp
\ Model foo
\ LP format - for model browsing. Use MPS format to capture full model detail.
Minimize
  z
Subject To
 allocateEach[1]: x[1,1] + x[2,1] + x[3,1] = 1
 allocateEach[2]: x[1,2] + x[2,2] + x[3,2] = 1
 allocateEach[3]: x[1,3] + x[2,3] + x[3,3] = 1
 allocateEach[4]: x[1,4] + x[2,4] + x[3,4] = 1
 allocateEach[5]: x[1,5] + x[2,5] + x[3,5] = 1
 allocateEach[6]: x[1,6] + x[2,6] + x[3,6] = 1
 allocateEach[7]: x[1,7] + x[2,7] + x[3,7] = 1
 allocateEach[8]: x[1,8] + x[2,8] + x[3,8] = 1
 allocateEach[9]: x[1,9] + x[2,9] + x[3,9] = 1
 allocateEach[10]: x[1,10] + x[2,10] + x[3,10] = 1
 allocateEach[11]: x[1,11] + x[2,11] + x[3,11] = 1
 allocateEach[12]: x[1,12] + x[2,12] + x[3,12] = 1
 allocateEach[13]: x[1,13] + x[2,13] + x[3,13] = 1
 allocateEach[14]: x[1,14] + x[2,14] + x[3,14] = 1
 allocateEach[15]: x[1,15] + x[2,15] + x[3,15] = 1
 allocateEach[16]: x[1,16] + x[2,16] + x[3,16] = 1
 allocateEach[17]: x[1,17] + x[2,17] + x[3,17] = 1
 allocateEach[18]: x[1,18] + x[2,18] + x[3,18] = 1
 allocateAllCash: cashProportion[1] + cashProportion[2] + cashProportion[3]
   = 1
 findWorstP[1,2]: z + 0.0325655109528668 cashProportion[1]
   - 0.0325655109528668 cashProportion[2] + 0.0881548381494106 x[1,1]
   + 0.0610277675256725 x[1,2] + 0.0737825926488787 x[1,3]
   + 0.0562949132671892 x[1,4] + 0.026899112047068 x[1,5]
   + 0.1081174963635179 x[1,6] + 0.0300796769501313 x[1,7]
   + 0.1030481318251883 x[1,8] + 0.0498252317578863 x[1,9]
   + 0.0363431102233994 x[1,10] + 0.0499446386313801 x[1,11]
   + 0.011810425305573 x[1,12] + 0.0140357352206856 x[1,13]
   + 0.0558064306028962 x[1,14] + 0.0592800851045353 x[1,15]
   + 0.00817394324916958 x[1,16] + 0.0696250624172293 x[1,17]
   + 0.0651852977573218 x[1,18] - 0.0881548381494106 x[2,1]
   - 0.0610277675256725 x[2,2] - 0.0737825926488787 x[2,3]
   - 0.0562949132671892 x[2,4] - 0.026899112047068 x[2,5]
   - 0.1081174963635179 x[2,6] - 0.0300796769501313 x[2,7]
   - 0.1030481318251883 x[2,8] - 0.0498252317578863 x[2,9]
   - 0.0363431102233994 x[2,10] - 0.0499446386313801 x[2,11]
   - 0.011810425305573 x[2,12] - 0.0140357352206856 x[2,13]
   - 0.0558064306028962 x[2,14] - 0.0592800851045353 x[2,15]
   - 0.00817394324916958 x[2,16] - 0.0696250624172293 x[2,17]
   - 0.0651852977573218 x[2,18] >= 0
 findWorstP[1,3]: z + 0.0325655109528668 cashProportion[1]
   - 0.0325655109528668 cashProportion[3] + 0.0881548381494106 x[1,1]
   + 0.0610277675256725 x[1,2] + 0.0737825926488787 x[1,3]
   + 0.0562949132671892 x[1,4] + 0.026899112047068 x[1,5]
   + 0.1081174963635179 x[1,6] + 0.0300796769501313 x[1,7]
   + 0.1030481318251883 x[1,8] + 0.0498252317578863 x[1,9]
   + 0.0363431102233994 x[1,10] + 0.0499446386313801 x[1,11]
   + 0.011810425305573 x[1,12] + 0.0140357352206856 x[1,13]
   + 0.0558064306028962 x[1,14] + 0.0592800851045353 x[1,15]
   + 0.00817394324916958 x[1,16] + 0.0696250624172293 x[1,17]
   + 0.0651852977573218 x[1,18] - 0.0881548381494106 x[3,1]
   - 0.0610277675256725 x[3,2] - 0.0737825926488787 x[3,3]
   - 0.0562949132671892 x[3,4] - 0.026899112047068 x[3,5]
   - 0.1081174963635179 x[3,6] - 0.0300796769501313 x[3,7]
   - 0.1030481318251883 x[3,8] - 0.0498252317578863 x[3,9]
   - 0.0363431102233994 x[3,10] - 0.0499446386313801 x[3,11]
   - 0.011810425305573 x[3,12] - 0.0140357352206856 x[3,13]
   - 0.0558064306028962 x[3,14] - 0.0592800851045353 x[3,15]
   - 0.00817394324916958 x[3,16] - 0.0696250624172293 x[3,17]
   - 0.0651852977573218 x[3,18] >= 0
 findWorstP[2,1]: z - 0.034819749762065 cashProportion[1]
   + 0.034819749762065 cashProportion[2] - 0.0335546321873767 x[1,1]
   - 0.1119338889017851 x[1,2] - 0.0924348290350287 x[1,3]
   - 0.00574525871074073 x[1,4] - 0.0450335430256041 x[1,5]
   - 0.00915759418742311 x[1,6] - 0.0416908470484459 x[1,7]
   - 0.0255460897421017 x[1,8] - 0.0873743587362752 x[1,9]
   - 0.0381044128229532 x[1,10] - 0.0093665126859955 x[1,11]
   - 0.0753499384851088 x[1,12] - 0.0693029086097635 x[1,13]
   - 0.00501404396573737 x[1,14] - 0.0688270386963486 x[1,15]
   - 0.0391838250655772 x[1,16] - 0.1093804405859003 x[1,17]
   - 0.0981800877457694 x[1,18] + 0.0335546321873767 x[2,1]
   + 0.1119338889017851 x[2,2] + 0.0924348290350287 x[2,3]
   + 0.00574525871074073 x[2,4] + 0.0450335430256041 x[2,5]
   + 0.00915759418742311 x[2,6] + 0.0416908470484459 x[2,7]
   + 0.0255460897421017 x[2,8] + 0.0873743587362752 x[2,9]
   + 0.0381044128229532 x[2,10] + 0.0093665126859955 x[2,11]
   + 0.0753499384851088 x[2,12] + 0.0693029086097635 x[2,13]
   + 0.00501404396573737 x[2,14] + 0.0688270386963486 x[2,15]
   + 0.0391838250655772 x[2,16] + 0.1093804405859003 x[2,17]
   + 0.0981800877457694 x[2,18] >= 0
 findWorstP[2,3]: z + 0.034819749762065 cashProportion[2]
   - 0.034819749762065 cashProportion[3] + 0.0335546321873767 x[2,1]
   + 0.1119338889017851 x[2,2] + 0.0924348290350287 x[2,3]
   + 0.00574525871074073 x[2,4] + 0.0450335430256041 x[2,5]
   + 0.00915759418742311 x[2,6] + 0.0416908470484459 x[2,7]
   + 0.0255460897421017 x[2,8] + 0.0873743587362752 x[2,9]
   + 0.0381044128229532 x[2,10] + 0.0093665126859955 x[2,11]
   + 0.0753499384851088 x[2,12] + 0.0693029086097635 x[2,13]
   + 0.00501404396573737 x[2,14] + 0.0688270386963486 x[2,15]
   + 0.0391838250655772 x[2,16] + 0.1093804405859003 x[2,17]
   + 0.0981800877457694 x[2,18] - 0.0335546321873767 x[3,1]
   - 0.1119338889017851 x[3,2] - 0.0924348290350287 x[3,3]
   - 0.00574525871074073 x[3,4] - 0.0450335430256041 x[3,5]
   - 0.00915759418742311 x[3,6] - 0.0416908470484459 x[3,7]
   - 0.0255460897421017 x[3,8] - 0.0873743587362752 x[3,9]
   - 0.0381044128229532 x[3,10] - 0.0093665126859955 x[3,11]
   - 0.0753499384851088 x[3,12] - 0.0693029086097635 x[3,13]
   - 0.00501404396573737 x[3,14] - 0.0688270386963486 x[3,15]
   - 0.0391838250655772 x[3,16] - 0.1093804405859003 x[3,17]
   - 0.0981800877457694 x[3,18] >= 0
 findWorstP[3,1]: z - 0.0339989573653075 cashProportion[1]
   + 0.0339989573653075 cashProportion[3] - 0.0406854189804846 x[1,1]
   - 0.0363448854235137 x[1,2] - 0.0823568077245631 x[1,3]
   - 0.072655771889662 x[1,4] - 0.1125932138081099 x[1,5]
   - 0.0817788254493529 x[1,6] - 0.0743897187152927 x[1,7]
   - 0.0175207960289218 x[1,8] - 0.0103470160248419 x[1,9]
   - 0.0724177791881049 x[1,10] - 0.1055667626192796 x[1,11]
   - 0.016251501620617 x[1,12] - 0.0884426210929531 x[1,13]
   - 0.0132255944151046 x[1,14] - 0.0599854937781908 x[1,15]
   - 0.0227906344205444 x[1,16] - 0.00902105668759491 x[1,17]
   - 0.0496271447675605 x[1,18] + 0.0406854189804846 x[3,1]
   + 0.0363448854235137 x[3,2] + 0.0823568077245631 x[3,3]
   + 0.072655771889662 x[3,4] + 0.1125932138081099 x[3,5]
   + 0.0817788254493529 x[3,6] + 0.0743897187152927 x[3,7]
   + 0.0175207960289218 x[3,8] + 0.0103470160248419 x[3,9]
   + 0.0724177791881049 x[3,10] + 0.1055667626192796 x[3,11]
   + 0.016251501620617 x[3,12] + 0.0884426210929531 x[3,13]
   + 0.0132255944151046 x[3,14] + 0.0599854937781908 x[3,15]
   + 0.0227906344205444 x[3,16] + 0.00902105668759491 x[3,17]
   + 0.0496271447675605 x[3,18] >= 0
 findWorstP[3,2]: z - 0.0339989573653075 cashProportion[2]
   + 0.0339989573653075 cashProportion[3] - 0.0406854189804846 x[2,1]
   - 0.0363448854235137 x[2,2] - 0.0823568077245631 x[2,3]
   - 0.072655771889662 x[2,4] - 0.1125932138081099 x[2,5]
   - 0.0817788254493529 x[2,6] - 0.0743897187152927 x[2,7]
   - 0.0175207960289218 x[2,8] - 0.0103470160248419 x[2,9]
   - 0.0724177791881049 x[2,10] - 0.1055667626192796 x[2,11]
   - 0.016251501620617 x[2,12] - 0.0884426210929531 x[2,13]
   - 0.0132255944151046 x[2,14] - 0.0599854937781908 x[2,15]
   - 0.0227906344205444 x[2,16] - 0.00902105668759491 x[2,17]
   - 0.0496271447675605 x[2,18] + 0.0406854189804846 x[3,1]
   + 0.0363448854235137 x[3,2] + 0.0823568077245631 x[3,3]
   + 0.072655771889662 x[3,4] + 0.1125932138081099 x[3,5]
   + 0.0817788254493529 x[3,6] + 0.0743897187152927 x[3,7]
   + 0.0175207960289218 x[3,8] + 0.0103470160248419 x[3,9]
   + 0.0724177791881049 x[3,10] + 0.1055667626192796 x[3,11]
   + 0.016251501620617 x[3,12] + 0.0884426210929531 x[3,13]
   + 0.0132255944151046 x[3,14] + 0.0599854937781908 x[3,15]
   + 0.0227906344205444 x[3,16] + 0.00902105668759491 x[3,17]
   + 0.0496271447675605 x[3,18] >= 0
Bounds
 z <= 1
 -infinity <= cashProportion[1] <= 1
 -infinity <= cashProportion[2] <= 1
 -infinity <= cashProportion[3] <= 1
Binaries
 x[1,1] x[1,2] x[1,3] x[1,4] x[1,5] x[1,6] x[1,7] x[1,8] x[1,9] x[1,10]
 x[1,11] x[1,12] x[1,13] x[1,14] x[1,15] x[1,16] x[1,17] x[1,18] x[2,1]
 x[2,2] x[2,3] x[2,4] x[2,5] x[2,6] x[2,7] x[2,8] x[2,9] x[2,10] x[2,11]
 x[2,12] x[2,13] x[2,14] x[2,15] x[2,16] x[2,17] x[2,18] x[3,1] x[3,2]
 x[3,3] x[3,4] x[3,5] x[3,6] x[3,7] x[3,8] x[3,9] x[3,10] x[3,11] x[3,12]
 x[3,13] x[3,14] x[3,15] x[3,16] x[3,17] x[3,18]
End
