data/mps_files/q3/58_5.mps
NAME foo
ROWS
 N  OBJ
 E  allocateEach[1]
 E  allocateEach[2]
 E  allocateEach[3]
 E  allocateEach[4]
 E  allocateEach[5]
 E  allocateEach[6]
 E  allocateEach[7]
 E  allocateEach[8]
 E  allocateEach[9]
 E  allocateEach[10]
 E  allocateEach[11]
 E  allocateEach[12]
 E  allocateEach[13]
 E  allocateEach[14]
 E  allocateEach[15]
 E  allocateEach[16]
 E  allocateEach[17]
 E  allocateEach[18]
 E  allocateAllCash
 G  findWorstP[1,2]
 G  findWorstP[1,3]
 G  findWorstP[2,1]
 G  findWorstP[2,3]
 G  findWorstP[3,1]
 G  findWorstP[3,2]
COLUMNS
    z         OBJ       1
    z         findWorstP[1,2]  1
    z         findWorstP[1,3]  1
    z         findWorstP[2,1]  1
    z         findWorstP[2,3]  1
    z         findWorstP[3,1]  1
    z         findWorstP[3,2]  1
    cashProportion[1]  allocateAllCash  1
    cashProportion[1]  findWorstP[1,2]  3.2565510952866847e-02
    cashProportion[1]  findWorstP[1,3]  3.2565510952866847e-02
    cashProportion[1]  findWorstP[2,1]  -3.4819749762065040e-02
    cashProportion[1]  findWorstP[3,1]  -3.3998957365307454e-02
    cashProportion[2]  allocateAllCash  1
    cashProportion[2]  findWorstP[1,2]  -3.2565510952866847e-02
    cashProportion[2]  findWorstP[2,1]  3.4819749762065040e-02
    cashProportion[2]  findWorstP[2,3]  3.4819749762065040e-02
    cashProportion[2]  findWorstP[3,2]  -3.3998957365307454e-02
    cashProportion[3]  allocateAllCash  1
    cashProportion[3]  findWorstP[1,3]  -3.2565510952866847e-02
    cashProportion[3]  findWorstP[2,3]  -3.4819749762065040e-02
    cashProportion[3]  findWorstP[3,1]  3.3998957365307454e-02
    cashProportion[3]  findWorstP[3,2]  3.3998957365307454e-02
    MARKER    'MARKER'                 'INTORG'
    x[1,1]    allocateEach[1]  1
    x[1,1]    findWorstP[1,2]  8.8154838149410567e-02
    x[1,1]    findWorstP[1,3]  8.8154838149410567e-02
    x[1,1]    findWorstP[2,1]  -3.3554632187376685e-02
    x[1,1]    findWorstP[3,1]  -4.0685418980484590e-02
    x[1,2]    allocateEach[2]  1
    x[1,2]    findWorstP[1,2]  6.1027767525672474e-02
    x[1,2]    findWorstP[1,3]  6.1027767525672474e-02
    x[1,2]    findWorstP[2,1]  -1.1193388890178510e-01
    x[1,2]    findWorstP[3,1]  -3.6344885423513669e-02
    x[1,3]    allocateEach[3]  1
    x[1,3]    findWorstP[1,2]  7.3782592648878653e-02
    x[1,3]    findWorstP[1,3]  7.3782592648878653e-02
    x[1,3]    findWorstP[2,1]  -9.2434829035028671e-02
    x[1,3]    findWorstP[3,1]  -0.0823568077245631
    x[1,4]    allocateEach[4]  1
    x[1,4]    findWorstP[1,2]  5.6294913267189155e-02
    x[1,4]    findWorstP[1,3]  5.6294913267189155e-02
    x[1,4]    findWorstP[2,1]  -5.7452587107407324e-03
    x[1,4]    findWorstP[3,1]  -7.2655771889662032e-02
    x[1,5]    allocateEach[5]  1
    x[1,5]    findWorstP[1,2]  2.6899112047068015e-02
    x[1,5]    findWorstP[1,3]  2.6899112047068015e-02
    x[1,5]    findWorstP[2,1]  -4.5033543025604125e-02
    x[1,5]    findWorstP[3,1]  -1.1259321380810987e-01
    x[1,6]    allocateEach[6]  1
    x[1,6]    findWorstP[1,2]  1.0811749636351793e-01
    x[1,6]    findWorstP[1,3]  1.0811749636351793e-01
    x[1,6]    findWorstP[2,1]  -9.1575941874231064e-03
    x[1,6]    findWorstP[3,1]  -8.1778825449352874e-02
    x[1,7]    allocateEach[7]  1
    x[1,7]    findWorstP[1,2]  3.0079676950131348e-02
    x[1,7]    findWorstP[1,3]  3.0079676950131348e-02
    x[1,7]    findWorstP[2,1]  -4.1690847048445882e-02
    x[1,7]    findWorstP[3,1]  -7.4389718715292708e-02
    x[1,8]    allocateEach[8]  1
    x[1,8]    findWorstP[1,2]  1.0304813182518834e-01
    x[1,8]    findWorstP[1,3]  1.0304813182518834e-01
    x[1,8]    findWorstP[2,1]  -2.5546089742101718e-02
    x[1,8]    findWorstP[3,1]  -1.7520796028921776e-02
    x[1,9]    allocateEach[9]  1
    x[1,9]    findWorstP[1,2]  4.9825231757886279e-02
    x[1,9]    findWorstP[1,3]  4.9825231757886279e-02
    x[1,9]    findWorstP[2,1]  -8.7374358736275221e-02
    x[1,9]    findWorstP[3,1]  -1.0347016024841903e-02
    x[1,10]   allocateEach[10]  1
    x[1,10]   findWorstP[1,2]  0.0363431102233994
    x[1,10]   findWorstP[1,3]  0.0363431102233994
    x[1,10]   findWorstP[2,1]  -3.8104412822953175e-02
    x[1,10]   findWorstP[3,1]  -7.2417779188104880e-02
    x[1,11]   allocateEach[11]  1
    x[1,11]   findWorstP[1,2]  4.9944638631380121e-02
    x[1,11]   findWorstP[1,3]  4.9944638631380121e-02
    x[1,11]   findWorstP[2,1]  -9.3665126859954952e-03
    x[1,11]   findWorstP[3,1]  -1.0556676261927965e-01
    x[1,12]   allocateEach[12]  1
    x[1,12]   findWorstP[1,2]  1.1810425305573044e-02
    x[1,12]   findWorstP[1,3]  1.1810425305573044e-02
    x[1,12]   findWorstP[2,1]  -7.5349938485108750e-02
    x[1,12]   findWorstP[3,1]  -1.6251501620616966e-02
    x[1,13]   allocateEach[13]  1
    x[1,13]   findWorstP[1,2]  1.4035735220685611e-02
    x[1,13]   findWorstP[1,3]  1.4035735220685611e-02
    x[1,13]   findWorstP[2,1]  -6.9302908609763458e-02
    x[1,13]   findWorstP[3,1]  -8.8442621092953130e-02
    x[1,14]   allocateEach[14]  1
    x[1,14]   findWorstP[1,2]  5.5806430602896154e-02
    x[1,14]   findWorstP[1,3]  5.5806430602896154e-02
    x[1,14]   findWorstP[2,1]  -5.0140439657373661e-03
    x[1,14]   findWorstP[3,1]  -0.0132255944151046
    x[1,15]   allocateEach[15]  1
    x[1,15]   findWorstP[1,2]  5.9280085104535286e-02
    x[1,15]   findWorstP[1,3]  5.9280085104535286e-02
    x[1,15]   findWorstP[2,1]  -6.8827038696348569e-02
    x[1,15]   findWorstP[3,1]  -5.9985493778190790e-02
    x[1,16]   allocateEach[16]  1
    x[1,16]   findWorstP[1,2]  0.00817394324916958
    x[1,16]   findWorstP[1,3]  0.00817394324916958
    x[1,16]   findWorstP[2,1]  -3.9183825065577195e-02
    x[1,16]   findWorstP[3,1]  -2.2790634420544433e-02
    x[1,17]   allocateEach[17]  1
    x[1,17]   findWorstP[1,2]  6.9625062417229322e-02
    x[1,17]   findWorstP[1,3]  6.9625062417229322e-02
    x[1,17]   findWorstP[2,1]  -1.0938044058590032e-01
    x[1,17]   findWorstP[3,1]  -9.0210566875949128e-03
    x[1,18]   allocateEach[18]  1
    x[1,18]   findWorstP[1,2]  0.0651852977573218
    x[1,18]   findWorstP[1,3]  0.0651852977573218
    x[1,18]   findWorstP[2,1]  -0.0981800877457694
    x[1,18]   findWorstP[3,1]  -4.9627144767560451e-02
    x[2,1]    allocateEach[1]  1
    x[2,1]    findWorstP[1,2]  -8.8154838149410567e-02
    x[2,1]    findWorstP[2,1]  3.3554632187376685e-02
    x[2,1]    findWorstP[2,3]  3.3554632187376685e-02
    x[2,1]    findWorstP[3,2]  -4.0685418980484590e-02
    x[2,2]    allocateEach[2]  1
    x[2,2]    findWorstP[1,2]  -6.1027767525672474e-02
    x[2,2]    findWorstP[2,1]  1.1193388890178510e-01
    x[2,2]    findWorstP[2,3]  1.1193388890178510e-01
    x[2,2]    findWorstP[3,2]  -3.6344885423513669e-02
    x[2,3]    allocateEach[3]  1
    x[2,3]    findWorstP[1,2]  -7.3782592648878653e-02
    x[2,3]    findWorstP[2,1]  9.2434829035028671e-02
    x[2,3]    findWorstP[2,3]  9.2434829035028671e-02
    x[2,3]    findWorstP[3,2]  -0.0823568077245631
    x[2,4]    allocateEach[4]  1
    x[2,4]    findWorstP[1,2]  -5.6294913267189155e-02
    x[2,4]    findWorstP[2,1]  5.7452587107407324e-03
    x[2,4]    findWorstP[2,3]  5.7452587107407324e-03
    x[2,4]    findWorstP[3,2]  -7.2655771889662032e-02
    x[2,5]    allocateEach[5]  1
    x[2,5]    findWorstP[1,2]  -2.6899112047068015e-02
    x[2,5]    findWorstP[2,1]  4.5033543025604125e-02
    x[2,5]    findWorstP[2,3]  4.5033543025604125e-02
    x[2,5]    findWorstP[3,2]  -1.1259321380810987e-01
    x[2,6]    allocateEach[6]  1
    x[2,6]    findWorstP[1,2]  -1.0811749636351793e-01
    x[2,6]    findWorstP[2,1]  9.1575941874231064e-03
    x[2,6]    findWorstP[2,3]  9.1575941874231064e-03
    x[2,6]    findWorstP[3,2]  -8.1778825449352874e-02
    x[2,7]    allocateEach[7]  1
    x[2,7]    findWorstP[1,2]  -3.0079676950131348e-02
    x[2,7]    findWorstP[2,1]  4.1690847048445882e-02
    x[2,7]    findWorstP[2,3]  4.1690847048445882e-02
    x[2,7]    findWorstP[3,2]  -7.4389718715292708e-02
    x[2,8]    allocateEach[8]  1
    x[2,8]    findWorstP[1,2]  -1.0304813182518834e-01
    x[2,8]    findWorstP[2,1]  2.5546089742101718e-02
    x[2,8]    findWorstP[2,3]  2.5546089742101718e-02
    x[2,8]    findWorstP[3,2]  -1.7520796028921776e-02
    x[2,9]    allocateEach[9]  1
    x[2,9]    findWorstP[1,2]  -4.9825231757886279e-02
    x[2,9]    findWorstP[2,1]  8.7374358736275221e-02
    x[2,9]    findWorstP[2,3]  8.7374358736275221e-02
    x[2,9]    findWorstP[3,2]  -1.0347016024841903e-02
    x[2,10]   allocateEach[10]  1
    x[2,10]   findWorstP[1,2]  -0.0363431102233994
    x[2,10]   findWorstP[2,1]  3.8104412822953175e-02
    x[2,10]   findWorstP[2,3]  3.8104412822953175e-02
    x[2,10]   findWorstP[3,2]  -7.2417779188104880e-02
    x[2,11]   allocateEach[11]  1
    x[2,11]   findWorstP[1,2]  -4.9944638631380121e-02
    x[2,11]   findWorstP[2,1]  9.3665126859954952e-03
    x[2,11]   findWorstP[2,3]  9.3665126859954952e-03
    x[2,11]   findWorstP[3,2]  -1.0556676261927965e-01
    x[2,12]   allocateEach[12]  1
    x[2,12]   findWorstP[1,2]  -1.1810425305573044e-02
    x[2,12]   findWorstP[2,1]  7.5349938485108750e-02
    x[2,12]   findWorstP[2,3]  7.5349938485108750e-02
    x[2,12]   findWorstP[3,2]  -1.6251501620616966e-02
    x[2,13]   allocateEach[13]  1
    x[2,13]   findWorstP[1,2]  -1.4035735220685611e-02
    x[2,13]   findWorstP[2,1]  6.9302908609763458e-02
    x[2,13]   findWorstP[2,3]  6.9302908609763458e-02
    x[2,13]   findWorstP[3,2]  -8.8442621092953130e-02
    x[2,14]   allocateEach[14]  1
    x[2,14]   findWorstP[1,2]  -5.5806430602896154e-02
    x[2,14]   findWorstP[2,1]  5.0140439657373661e-03
    x[2,14]   findWorstP[2,3]  5.0140439657373661e-03
    x[2,14]   findWorstP[3,2]  -0.0132255944151046
    x[2,15]   allocateEach[15]  1
    x[2,15]   findWorstP[1,2]  -5.9280085104535286e-02
    x[2,15]   findWorstP[2,1]  6.8827038696348569e-02
    x[2,15]   findWorstP[2,3]  6.8827038696348569e-02
    x[2,15]   findWorstP[3,2]  -5.9985493778190790e-02
    x[2,16]   allocateEach[16]  1
    x[2,16]   findWorstP[1,2]  -0.00817394324916958
    x[2,16]   findWorstP[2,1]  3.9183825065577195e-02
    x[2,16]   findWorstP[2,3]  3.9183825065577195e-02
    x[2,16]   findWorstP[3,2]  -2.2790634420544433e-02
    x[2,17]   allocateEach[17]  1
    x[2,17]   findWorstP[1,2]  -6.9625062417229322e-02
    x[2,17]   findWorstP[2,1]  1.0938044058590032e-01
    x[2,17]   findWorstP[2,3]  1.0938044058590032e-01
    x[2,17]   findWorstP[3,2]  -9.0210566875949128e-03
    x[2,18]   allocateEach[18]  1
    x[2,18]   findWorstP[1,2]  -0.0651852977573218
    x[2,18]   findWorstP[2,1]  0.0981800877457694
    x[2,18]   findWorstP[2,3]  0.0981800877457694
    x[2,18]   findWorstP[3,2]  -4.9627144767560451e-02
    x[3,1]    allocateEach[1]  1
    x[3,1]    findWorstP[1,3]  -8.8154838149410567e-02
    x[3,1]    findWorstP[2,3]  -3.3554632187376685e-02
    x[3,1]    findWorstP[3,1]  4.0685418980484590e-02
    x[3,1]    findWorstP[3,2]  4.0685418980484590e-02
    x[3,2]    allocateEach[2]  1
    x[3,2]    findWorstP[1,3]  -6.1027767525672474e-02
    x[3,2]    findWorstP[2,3]  -1.1193388890178510e-01
    x[3,2]    findWorstP[3,1]  3.6344885423513669e-02
    x[3,2]    findWorstP[3,2]  3.6344885423513669e-02
    x[3,3]    allocateEach[3]  1
    x[3,3]    findWorstP[1,3]  -7.3782592648878653e-02
    x[3,3]    findWorstP[2,3]  -9.2434829035028671e-02
    x[3,3]    findWorstP[3,1]  0.0823568077245631
    x[3,3]    findWorstP[3,2]  0.0823568077245631
    x[3,4]    allocateEach[4]  1
    x[3,4]    findWorstP[1,3]  -5.6294913267189155e-02
    x[3,4]    findWorstP[2,3]  -5.7452587107407324e-03
    x[3,4]    findWorstP[3,1]  7.2655771889662032e-02
    x[3,4]    findWorstP[3,2]  7.2655771889662032e-02
    x[3,5]    allocateEach[5]  1
    x[3,5]    findWorstP[1,3]  -2.6899112047068015e-02
    x[3,5]    findWorstP[2,3]  -4.5033543025604125e-02
    x[3,5]    findWorstP[3,1]  1.1259321380810987e-01
    x[3,5]    findWorstP[3,2]  1.1259321380810987e-01
    x[3,6]    allocateEach[6]  1
    x[3,6]    findWorstP[1,3]  -1.0811749636351793e-01
    x[3,6]    findWorstP[2,3]  -9.1575941874231064e-03
    x[3,6]    findWorstP[3,1]  8.1778825449352874e-02
    x[3,6]    findWorstP[3,2]  8.1778825449352874e-02
    x[3,7]    allocateEach[7]  1
    x[3,7]    findWorstP[1,3]  -3.0079676950131348e-02
    x[3,7]    findWorstP[2,3]  -4.1690847048445882e-02
    x[3,7]    findWorstP[3,1]  7.4389718715292708e-02
    x[3,7]    findWorstP[3,2]  7.4389718715292708e-02
    x[3,8]    allocateEach[8]  1
    x[3,8]    findWorstP[1,3]  -1.0304813182518834e-01
    x[3,8]    findWorstP[2,3]  -2.5546089742101718e-02
    x[3,8]    findWorstP[3,1]  1.7520796028921776e-02
    x[3,8]    findWorstP[3,2]  1.7520796028921776e-02
    x[3,9]    allocateEach[9]  1
    x[3,9]    findWorstP[1,3]  -4.9825231757886279e-02
    x[3,9]    findWorstP[2,3]  -8.7374358736275221e-02
    x[3,9]    findWorstP[3,1]  1.0347016024841903e-02
    x[3,9]    findWorstP[3,2]  1.0347016024841903e-02
    x[3,10]   allocateEach[10]  1
    x[3,10]   findWorstP[1,3]  -0.0363431102233994
    x[3,10]   findWorstP[2,3]  -3.8104412822953175e-02
    x[3,10]   findWorstP[3,1]  7.2417779188104880e-02
    x[3,10]   findWorstP[3,2]  7.2417779188104880e-02
    x[3,11]   allocateEach[11]  1
    x[3,11]   findWorstP[1,3]  -4.9944638631380121e-02
    x[3,11]   findWorstP[2,3]  -9.3665126859954952e-03
    x[3,11]   findWorstP[3,1]  1.0556676261927965e-01
    x[3,11]   findWorstP[3,2]  1.0556676261927965e-01
    x[3,12]   allocateEach[12]  1
    x[3,12]   findWorstP[1,3]  -1.1810425305573044e-02
    x[3,12]   findWorstP[2,3]  -7.5349938485108750e-02
    x[3,12]   findWorstP[3,1]  1.6251501620616966e-02
    x[3,12]   findWorstP[3,2]  1.6251501620616966e-02
    x[3,13]   allocateEach[13]  1
    x[3,13]   findWorstP[1,3]  -1.4035735220685611e-02
    x[3,13]   findWorstP[2,3]  -6.9302908609763458e-02
    x[3,13]   findWorstP[3,1]  8.8442621092953130e-02
    x[3,13]   findWorstP[3,2]  8.8442621092953130e-02
    x[3,14]   allocateEach[14]  1
    x[3,14]   findWorstP[1,3]  -5.5806430602896154e-02
    x[3,14]   findWorstP[2,3]  -5.0140439657373661e-03
    x[3,14]   findWorstP[3,1]  0.0132255944151046
    x[3,14]   findWorstP[3,2]  0.0132255944151046
    x[3,15]   allocateEach[15]  1
    x[3,15]   findWorstP[1,3]  -5.9280085104535286e-02
    x[3,15]   findWorstP[2,3]  -6.8827038696348569e-02
    x[3,15]   findWorstP[3,1]  5.9985493778190790e-02
    x[3,15]   findWorstP[3,2]  5.9985493778190790e-02
    x[3,16]   allocateEach[16]  1
    x[3,16]   findWorstP[1,3]  -0.00817394324916958
    x[3,16]   findWorstP[2,3]  -3.9183825065577195e-02
    x[3,16]   findWorstP[3,1]  2.2790634420544433e-02
    x[3,16]   findWorstP[3,2]  2.2790634420544433e-02
    x[3,17]   allocateEach[17]  1
    x[3,17]   findWorstP[1,3]  -6.9625062417229322e-02
    x[3,17]   findWorstP[2,3]  -1.0938044058590032e-01
    x[3,17]   findWorstP[3,1]  9.0210566875949128e-03
    x[3,17]   findWorstP[3,2]  9.0210566875949128e-03
    x[3,18]   allocateEach[18]  1
    x[3,18]   findWorstP[1,3]  -0.0651852977573218
    x[3,18]   findWorstP[2,3]  -0.0981800877457694
    x[3,18]   findWorstP[3,1]  4.9627144767560451e-02
    x[3,18]   findWorstP[3,2]  4.9627144767560451e-02
    MARKER    'MARKER'                 'INTEND'
RHS
    RHS1      allocateEach[1]  1
    RHS1      allocateEach[2]  1
    RHS1      allocateEach[3]  1
    RHS1      allocateEach[4]  1
    RHS1      allocateEach[5]  1
    RHS1      allocateEach[6]  1
    RHS1      allocateEach[7]  1
    RHS1      allocateEach[8]  1
    RHS1      allocateEach[9]  1
    RHS1      allocateEach[10]  1
    RHS1      allocateEach[11]  1
    RHS1      allocateEach[12]  1
    RHS1      allocateEach[13]  1
    RHS1      allocateEach[14]  1
    RHS1      allocateEach[15]  1
    RHS1      allocateEach[16]  1
    RHS1      allocateEach[17]  1
    RHS1      allocateEach[18]  1
    RHS1      allocateAllCash  1
BOUNDS
 UP BND1      z         1
 MI BND1      cashProportion[1]
 UP BND1      cashProportion[1]  1
 MI BND1      cashProportion[2]
 UP BND1      cashProportion[2]  1
 MI BND1      cashProportion[3]
 UP BND1      cashProportion[3]  1
 BV BND1      x[1,1]  
 BV BND1      x[1,2]  
 BV BND1      x[1,3]  
 BV BND1      x[1,4]  
 BV BND1      x[1,5]  
 BV BND1      x[1,6]  
 BV BND1      x[1,7]  
 BV BND1      x[1,8]  
 BV BND1      x[1,9]  
 BV BND1      x[1,10] 
 BV BND1      x[1,11] 
 BV BND1      x[1,12] 
 BV BND1      x[1,13] 
 BV BND1      x[1,14] 
 BV BND1      x[1,15] 
 BV BND1      x[1,16] 
 BV BND1      x[1,17] 
 BV BND1      x[1,18] 
 BV BND1      x[2,1]  
 BV BND1      x[2,2]  
 BV BND1      x[2,3]  
 BV BND1      x[2,4]  
 BV BND1      x[2,5]  
 BV BND1      x[2,6]  
 BV BND1      x[2,7]  
 BV BND1      x[2,8]  
 BV BND1      x[2,9]  
 BV BND1      x[2,10] 
 BV BND1      x[2,11] 
 BV BND1      x[2,12] 
 BV BND1      x[2,13] 
 BV BND1      x[2,14] 
 BV BND1      x[2,15] 
 BV BND1      x[2,16] 
 BV BND1      x[2,17] 
 BV BND1      x[2,18] 
 BV BND1      x[3,1]  
 BV BND1      x[3,2]  
 BV BND1      x[3,3]  
 BV BND1      x[3,4]  
 BV BND1      x[3,5]  
 BV BND1      x[3,6]  
 BV BND1      x[3,7]  
 BV BND1      x[3,8]  
 BV BND1      x[3,9]  
 BV BND1      x[3,10] 
 BV BND1      x[3,11] 
 BV BND1      x[3,12] 
 BV BND1      x[3,13] 
 BV BND1      x[3,14] 
 BV BND1      x[3,15] 
 BV BND1      x[3,16] 
 BV BND1      x[3,17] 
 BV BND1      x[3,18] 
ENDATA
